(set-info :smt-lib-version 2.6)
(set-info :category "crafted")
(set-logic QF_FFA)
(define-sort FF0 () (_ FiniteField 52435875175126190479447740508185965837690552500527637822603658699938581184513))
(declare-fun x2_n3_alt () FF0)
(declare-fun x0_n4_alt () FF0)
(declare-fun x3_n2_alt () FF0)
(declare-fun x1_n0_alt () FF0)
(declare-fun return_n1_alt () FF0)
(declare-fun is_zero_inv_n5_alt () FF0)
(declare-fun x2_n3 () FF0)
(declare-fun x0_n4 () FF0)
(declare-fun x3_n2 () FF0)
(declare-fun x1_n0 () FF0)
(declare-fun return_n1 () FF0)
(declare-fun is_zero_inv_n5 () FF0)
(assert 
  (let ((let0 (as ff0 FF0)))
  (let ((let1 (as ff4 FF0)))
  (let ((let2 (as ff52435875175126190479447740508185965837690552500527637822603658699938581184512 FF0)))
  (let ((let3 x2_n3_alt))
  (let ((let4 (ff.mul let3 let2)))
  (let ((let5 x0_n4_alt))
  (let ((let6 (ff.mul let5 let2)))
  (let ((let7 x3_n2_alt))
  (let ((let8 (ff.mul let7 let2)))
  (let ((let9 x1_n0_alt))
  (let ((let10 (ff.mul let9 let2)))
  (let ((let11 (ff.add let10 let8 let6 let4 let1)))
  (let ((let12 return_n1_alt))
  (let ((let13 (ff.mul let12 let11)))
  (let ((let14 (= let13 let0)))
  (let ((let15 (as ff1 FF0)))
  (let ((let16 (ff.mul let12 let2)))
  (let ((let17 (ff.add let16 let15)))
  (let ((let18 is_zero_inv_n5_alt))
  (let ((let19 (ff.mul let18 let11)))
  (let ((let20 (= let19 let17)))
  (let ((let21 (and let20 let14)))
  (let ((let22 x2_n3))
  (let ((let23 (ff.mul let22 let2)))
  (let ((let24 x0_n4))
  (let ((let25 (ff.mul let24 let2)))
  (let ((let26 x3_n2))
  (let ((let27 (ff.mul let26 let2)))
  (let ((let28 x1_n0))
  (let ((let29 (ff.mul let28 let2)))
  (let ((let30 (ff.add let29 let27 let25 let23 let1)))
  (let ((let31 return_n1))
  (let ((let32 (ff.mul let31 let30)))
  (let ((let33 (= let32 let0)))
  (let ((let34 (ff.mul let31 let2)))
  (let ((let35 (ff.add let34 let15)))
  (let ((let36 is_zero_inv_n5))
  (let ((let37 (ff.mul let36 let30)))
  (let ((let38 (= let37 let35)))
  (let ((let39 (and let38 let33)))
  (let ((let40 (= let31 let12)))
  (let ((let41 (not let40)))
  (let ((let42 (= let26 let7)))
  (let ((let43 (= let28 let9)))
  (let ((let44 (= let24 let5)))
  (let ((let45 (= let22 let3)))
  (let ((let46 (and let45 let44 let43 let42)))
  (let ((let47 (and let46 let41 let39 let21)))
  let47
))))))))))))))))))))))))))))))))))))))))))))))))
)
(check-sat)
